29440
100010101011011011010111101110
22 19 21 22 0 6 21 27 27 28 4 28 13 23 28 27 13 13 22 27 27 16 23 0 13 11 27 17 4 21 19 4 4 16 28 6 14 26 22 21 22 26 6 26 8 19 13 21 10 14 24 16 21 21 8 6 27 26 22 11 4 0 11 8 13 11 0 14 28 11 27 17 6 26 10 13 10 23 13 16 8 13 4 11 4 10 19 0 0 11 28 4 11 6 0 13 28 11 17 28 19 16 11 11 4 24 4 24 28 8 14 4 27 6 28 8 28 11 14 13 26 11 17 19 26 16 16 11 26 17 28 19 11 10 13 14 13 13 28 14 6 22 11 11 11 23 21 16 22 6 0 17 10 17 8 11 16 16 13 13 13 0 10 0 23 17 10 4 13 21 13 8 19 14 4 23 0 10 26 10 23 21 24 17 28 8 28 23 0 21 0 21 19 4 19 6 11 21 10 19 